1502.38
0 24 49 63 43 62 61 36 74 30 0
0 41 21 47 37 54 67 26 0
0 69 60 20 15 5 45 68 40 0
0 39 25 50 18 56 28 52 0
0 70 57 34 46 66 72 17 0
0 48 71 64 22 33 16 3 6 0
0 58 31 9 32 73 29 12 0
0 38 65 59 14 13 4 0
0 1 23 44 55 10 53 19 35 27 0
0 7 11 8 2 42 51 75 0
